% demand
num_movements = 29;
loading_factor = [1450, 900, 1200, 1900, 1500, 1600, 1150, 1650, 1400, 900, 1250, 1600, 950, 2000, 1200, 1900, 1850, 1400, 1400, 1700, 1300, 1700, 900, 1150, 1400, 1200, 1900, 1400, 1200];
pickup_time = [0, 0, 0, 1, 1, 2, 2, 2, 2, 3, 3, 3, 4, 5, 5, 7, 8, 8, 8, 8, 9, 9, 9, 9, 9, 10, 10, 10, 10];
delivery_time = [2, 2, 2, 2, 2, 4, 3, 3, 4, 4, 6, 8, 6, 8, 6, 8, 9, 9, 9, 9, 12, 10, 10, 10, 10, 12, 11, 12, 11];

% transporter definition
total_capacity = 7000;
num_decks = 3;
capacity = [3000, 1000, 3000];

% ways out of decks
num_ways_out = 1;
paths_out = array3d(decks, ways_out, decks, [
% ways out of deck d1
2, 3, 0, 

% ways out of deck d2
3, 0, 0, 

% ways out of deck d3
0, 0, 0,	

]);

